[TITLE]
Urban Flood Nowcasting Prototype

[OPTIONS]
FLOW_UNITS           CMS
INFILTRATION         HORTON
FLOW_ROUTING         KINWAVE
START_DATE           09/04/2026
START_TIME           00:00:00
END_DATE             09/04/2026
END_TIME             03:00:00
REPORT_STEP          00:05:00
WET_STEP             00:01:00
DRY_STEP             01:00:00
ROUTING_STEP         00:01:00
ALLOW_PONDING        NO

[RAINGAGES]
;;Name   Format     Interval   SCF   DataSource   SourceName
RAIN     INTENSITY  00:05      1.0   TIMESERIES   STORM

[SUBCATCHMENTS]
;;Name   RainGage   Outlet   Area   %Imperv   Width   %Slope   CurbLen
S1       RAIN       J1       10.0   80.0      500.0   1.0      0.0

[SUBAREAS]
;;Subcatchment   N-Imperv   N-Perv   S-Imperv   S-Perv   PctZero   RouteTo
S1               0.015      0.25     2.0        5.0      25.0      OUTLET

[INFILTRATION]
;;Subcatchment   MaxRate   MinRate   Decay   DryTime   MaxInfil
S1               75.0      5.0       4.0      7.0       0.0

[JUNCTIONS]
;;Name   Elevation   MaxDepth   InitDepth   SurDepth   Aponded
J1       10.0        2.0        0.0         1.0        0.0
J2       9.5         2.0        0.0         1.0        0.0
J3       9.0         2.0        0.0         1.0        0.0

[OUTFALLS]
;;Name   Elevation   Type   StageData   Gated
OUT1     8.5         FREE              NO

[CONDUITS]
;;Name   From   To     Length   Roughness   InOffset   OutOffset   InitFlow   MaxFlow
C1       J1     J2     500.0    0.013       0.0        0.0         0.0         0.0
C2       J2     J3     500.0    0.013       0.0        0.0         0.0         0.0
C3       J3     OUT1   500.0    0.013       0.0        0.0         0.0         0.0

[XSECTIONS]
;;Link   Shape      Geom1   Geom2   Geom3   Geom4   Barrels
C1       CIRCULAR   1.0     0.0      0.0      0.0      1
C2       CIRCULAR   1.0     0.0      0.0      0.0      1
C3       CIRCULAR   1.0     0.0      0.0      0.0      1

[TIMESERIES]
;;Name   Date        Time     Value
STORM    09/04/2026  00:00    0
STORM    09/04/2026  00:30    20
STORM    09/04/2026  01:00    40
STORM    09/04/2026  01:30    80
STORM    09/04/2026  02:00    60
STORM    09/04/2026  02:30    30
STORM    09/04/2026  03:00    5

[REPORT]
INPUT              YES
SUBCATCHMENTS      ALL
NODES              ALL
LINKS              ALL

[COORDINATES]
J1       0.0       0.0
J2       500.0     -100.0
J3       1000.0    -200.0
OUT1     1500.0    -300.0